param NB_NUM := 5;
param NB_COUL := 4;
param NB_MUL := 1;
param NB_GROUPES := 49;
param carte_table_joker := 0;
param carte_main_joker := 0;

param carte_table: 1 2 3 4 :=
1 1 0 0 0
2 1 0 0 0
3 1 0 0 0
4 0 0 0 0
5 0 0 0 0;

param carte_main: 1 2 3 4 :=
1 0 0 0 0
2 0 0 0 0
3 0 0 0 0
4 0 0 0 0
5 0 1 1 1;

#parametres auxilieres
param count := 1;
param nb_tiles := 3;
param num := 1;
param count_num := 1;
param count_colour := 0;
param i := 1;
param j := 1;
param k := 1;
